c Random 7-CNF over 30 variables and 240 clauses
c Generated with `cnfgen`
c (C) 2012-2016 Massimo Lauria <lauria.massimo@gmail.com>
c https://massimolauria.github.io/cnfgen
c
c COMMAND LINE: cnfgen --output tmp-7-30-240.dimacs --output-format dimacs randkcnf 7 30 240
c
c sdimacs generated by gen-sdimacs
c
p cnf 30 240
e 16 17 18 19 20 21 22 23 24 25 26 27 28 29 30 0
r 0.37 1 2 3 4 5 6 7 8 9 10 11 12 13 14 15 0
3 9 -13 16 -19 -22 -27 0
-3 -5 9 16 -19 23 30 0
1 -8 -12 13 15 22 26 0
-6 -11 12 14 -15 20 -28 0
6 -12 16 21 22 23 -24 0
1 4 11 17 -18 25 28 0
2 9 12 13 14 21 -23 0
3 5 -8 12 -13 -18 -23 0
9 -14 -21 24 -25 26 -28 0
3 9 11 13 24 26 -29 0
2 5 6 15 16 -18 -25 0
5 8 -9 -11 12 14 -19 0
-3 -5 -14 16 19 25 29 0
10 16 -17 19 21 -22 27 0
3 -6 -12 16 19 21 24 0
-6 10 -14 17 -18 24 28 0
1 2 -8 12 13 16 21 0
7 10 15 -16 -17 22 28 0
2 5 10 14 21 27 28 0
-5 -7 10 -11 15 -19 30 0
-10 -15 20 23 24 25 27 0
5 8 10 12 14 -24 26 0
1 5 15 17 -20 23 -26 0
-8 10 -13 19 -24 25 -27 0
1 -4 5 -10 -14 -19 -23 0
1 2 -5 12 -14 24 -27 0
-5 -12 -19 -23 24 -26 27 0
11 13 14 16 -25 29 30 0
-3 5 -8 -10 16 -20 -24 0
1 -7 9 13 17 -18 -20 0
2 -7 -11 12 14 -15 -25 0
-1 -6 -9 10 16 -21 -26 0
6 -13 -14 -17 -18 -19 -29 0
-2 -3 -4 -11 14 -20 22 0
8 -10 11 -13 -15 -22 23 0
9 -10 -22 -23 25 27 29 0
-1 -2 5 14 21 -25 27 0
3 8 10 20 -21 25 -30 0
3 -4 -5 -14 18 -23 -30 0
1 -3 5 15 23 29 -30 0
2 -5 13 -18 -21 22 -26 0
2 5 -7 -11 -14 -22 25 0
5 -10 12 -14 17 -28 -29 0
-6 -10 -14 16 20 -26 28 0
10 12 -13 -17 23 -24 28 0
-3 11 16 -18 20 -27 -28 0
2 -12 22 -26 -27 28 -30 0
-1 -14 19 20 -23 25 30 0
2 -3 9 -14 -17 24 29 0
3 -8 -10 -15 26 29 30 0
6 7 16 20 -21 24 -26 0
-2 -5 -6 15 -20 23 -25 0
-4 -6 10 16 18 23 29 0
-6 9 10 20 -22 26 -27 0
-4 -7 20 -21 -24 -25 -30 0
-7 8 -9 18 20 -29 30 0
6 -13 16 21 23 -24 28 0
-4 6 8 -9 11 -18 20 0
-5 -8 -13 15 17 19 -25 0
4 -15 16 17 23 25 -30 0
-2 -6 -10 11 14 -21 29 0
10 11 13 -15 -19 25 -28 0
-3 8 -17 -18 -21 26 29 0
4 -8 -9 18 21 -26 -30 0
-4 5 -6 9 -11 -12 -25 0
1 2 -11 14 20 -24 -28 0
-1 5 7 -19 -21 25 28 0
-5 9 11 -12 -17 -24 -28 0
-1 -2 4 -17 -24 -25 30 0
1 -6 17 20 -22 -25 -27 0
10 -11 -14 -17 -18 23 27 0
2 -3 8 -16 26 28 -30 0
-8 10 12 13 17 -26 29 0
1 2 7 -12 14 -21 28 0
1 2 -5 6 15 -16 -17 0
-2 3 11 20 24 -26 -27 0
5 11 -12 -17 -21 22 28 0
-5 13 16 -21 -24 -25 -28 0
-3 8 9 -11 22 -26 30 0
-6 10 16 19 21 23 24 0
1 -3 -5 -7 -17 -19 27 0
-4 -10 11 18 21 -22 -25 0
-4 6 -9 -12 -20 28 -30 0
7 9 -10 14 -16 -22 -26 0
-4 -8 -12 -16 -22 24 -30 0
8 10 11 15 -22 23 26 0
-7 -11 12 -18 -23 -24 29 0
7 11 18 21 22 -23 28 0
6 -10 -12 -13 -17 20 -21 0
1 -5 -8 12 20 25 -28 0
-4 -5 -8 -20 25 -27 -29 0
11 13 18 -22 23 -24 -28 0
-1 -3 4 12 26 -28 -29 0
1 -2 -3 22 26 28 -30 0
-1 -4 -6 12 -15 -23 -26 0
-2 4 6 13 -16 19 29 0
3 -4 9 -10 12 18 30 0
-1 4 5 9 16 -19 -28 0
6 8 18 -20 22 25 -26 0
11 14 16 19 -20 -26 27 0
3 15 -17 18 22 -25 28 0
-3 4 7 -17 -20 25 26 0
3 5 -8 9 -14 24 25 0
-2 -5 -14 21 -22 27 -29 0
-3 -6 11 -14 20 -21 30 0
2 -3 -7 -10 11 -22 29 0
-15 18 -21 24 25 26 29 0
4 14 -16 -23 24 -26 29 0
2 -5 -13 -15 18 26 -28 0
1 -3 16 -17 21 24 -26 0
-1 11 -13 -15 -21 -23 -30 0
-1 -8 9 -16 19 -22 -25 0
1 2 3 17 18 -20 -25 0
8 12 -15 -19 -21 22 -30 0
1 -4 13 18 20 -22 29 0
5 8 17 -18 23 -29 30 0
1 2 3 -4 -11 19 24 0
5 6 -9 -15 -21 -24 27 0
12 13 16 22 -23 -24 27 0
-12 -15 -17 19 -22 23 -24 0
3 7 11 -13 14 15 20 0
-4 -5 6 -9 15 -20 -24 0
-1 2 8 -14 15 -20 -22 0
1 -5 9 -10 -15 -17 -18 0
-2 6 -9 -10 21 -24 25 0
-4 5 8 15 -18 24 30 0
-4 9 14 -16 -21 -29 -30 0
2 3 5 11 -19 25 29 0
-2 11 -14 22 -23 25 -29 0
11 15 21 -22 -23 24 26 0
-2 -17 19 21 22 24 25 0
-1 -3 -4 -11 22 24 29 0
2 -11 12 -17 18 -21 -29 0
-1 9 -11 -19 -20 22 -24 0
-9 -14 16 -17 23 24 -30 0
2 6 -12 -22 -25 27 -28 0
-2 -6 12 -13 -15 23 -27 0
2 -13 18 -22 -26 -29 -30 0
-4 11 -14 -18 -22 27 -29 0
12 -15 16 20 -21 23 29 0
-4 -10 15 18 20 26 -29 0
-1 -2 -10 12 21 -23 -30 0
-8 12 -17 20 23 -26 -30 0
5 -9 -13 14 16 23 26 0
10 -11 -13 -16 -17 22 28 0
-1 -6 14 15 16 -20 29 0
-7 -8 -10 16 17 -19 -28 0
-6 8 -15 -17 25 26 29 0
-1 -2 -8 -10 -15 18 -22 0
-2 16 -22 25 27 -28 -30 0
10 12 13 15 18 -21 -29 0
4 5 -9 18 -20 -26 -30 0
-4 8 15 17 20 24 25 0
2 -4 -10 -16 18 27 28 0
-1 4 -15 16 20 -29 30 0
1 -3 -18 20 -23 24 27 0
-3 -10 -15 -21 -23 24 -30 0
-7 10 12 14 -21 -23 29 0
-4 6 10 13 16 19 -27 0
8 10 -11 15 -20 -25 -28 0
7 -11 12 15 18 23 -27 0
3 -4 6 -12 15 25 28 0
-10 -14 17 -18 -19 -25 26 0
-4 -6 12 14 21 24 -26 0
7 -11 -16 17 -20 -22 30 0
-2 -5 -8 9 20 23 -27 0
4 13 -15 21 22 26 28 0
-2 -7 -12 -22 -23 28 -29 0
2 7 -9 -15 -22 24 27 0
7 11 12 -16 -19 27 30 0
11 -16 -22 -23 24 26 30 0
5 -7 11 13 -21 -28 29 0
-2 9 14 -16 -17 -19 -26 0
2 -8 -10 -15 16 -24 25 0
2 -10 15 -16 19 -22 -26 0
1 -4 5 -12 -14 -16 -18 0
-1 9 11 -14 18 -26 29 0
-3 8 -9 16 -19 -26 -28 0
-13 -17 18 -21 24 26 -27 0
-2 10 13 14 -15 27 -30 0
-3 -7 -12 -17 23 -26 -27 0
-1 10 -14 20 -22 -23 26 0
1 -4 -7 13 15 -22 -28 0
4 7 8 -9 -13 21 28 0
3 6 11 -16 18 -23 25 0
-1 5 7 10 16 19 -20 0
-6 -7 12 -22 -24 -26 -30 0
6 -9 -11 13 -17 -25 28 0
6 -11 13 -14 -20 22 23 0
-5 -6 -15 18 -19 24 25 0
-7 10 -19 -20 -27 29 30 0
11 14 17 19 20 -24 -26 0
-1 3 8 -9 -17 19 23 0
-3 5 -10 -14 -19 -23 26 0
1 -4 6 -14 27 -29 -30 0
2 -3 4 7 -18 20 25 0
-2 4 -14 -15 -19 -20 24 0
-4 -7 11 -13 14 19 -30 0
1 -9 -12 16 20 22 26 0
-2 12 -14 16 -27 28 -30 0
1 6 7 -12 13 -28 -29 0
-1 13 -16 -17 -18 -19 -22 0
-4 -7 8 10 16 22 24 0
-10 17 19 -23 -24 -25 26 0
2 -5 8 14 15 -19 23 0
-3 11 -16 18 20 21 -26 0
2 6 -13 -14 -23 -25 -26 0
2 8 11 -16 18 -24 27 0
3 -6 7 -11 -19 23 27 0
-3 10 -11 -12 -19 -20 24 0
1 -7 8 -12 19 22 -24 0
3 -4 9 21 -23 24 27 0
-2 5 15 18 19 26 -30 0
-13 -14 -18 -22 25 27 -30 0
-1 7 -12 17 18 -24 -26 0
1 -2 5 10 -18 -26 -28 0
3 -5 7 -8 -22 26 -27 0
-8 9 -11 15 17 20 -22 0
-2 -3 -4 -10 11 -29 -30 0
2 3 -5 -7 -24 25 -27 0
7 -9 -20 -21 24 27 -28 0
-4 7 -15 23 -25 29 -30 0
-6 -14 -17 21 23 28 29 0
-7 12 13 -18 21 -23 -25 0
-1 -4 6 8 -17 25 26 0
2 5 9 13 15 -17 29 0
-6 -10 15 17 -27 28 -30 0
-11 -12 13 15 17 -19 20 0
2 3 -11 -16 -17 -20 29 0
6 7 8 -13 16 -21 29 0
-5 6 -10 -11 17 -23 27 0
-1 4 -10 -11 -15 19 25 0
-4 -9 -12 -16 -18 24 -27 0
-4 -5 -7 -18 -21 -25 26 0
2 4 6 -15 24 -25 -29 0
-1 -8 -9 10 13 14 21 0
5 -8 -12 17 24 25 -26 0
-2 -3 -4 -5 18 21 -23 0
-2 -7 13 -15 17 20 28 0
5 11 12 18 -24 -25 -28 0
